solution status: optimal solution found
objective value:                                    5
$and$benchmarks/c432.v:170$377_y                    7 	(obj:0)
$and$benchmarks/c432.v:170$377_z                  -18 	(obj:0)
$and$benchmarks/c432.v:170$378_y                    9 	(obj:0)
$and$benchmarks/c432.v:170$378_z                  -19 	(obj:0)
$_41__1_y                                           5 	(obj:0)
$_41__1_z                                         -13 	(obj:0)
$_39__1_y                                          10 	(obj:0)
$_39__1_z                                         -17 	(obj:0)
$and$benchmarks/c432.v:170$375_y                    9 	(obj:0)
$and$benchmarks/c432.v:170$375_z                  -17 	(obj:0)
$_43__1_y                                           1 	(obj:0)
$_43__1_z                                         -25 	(obj:0)
$_42__1_y                                           4 	(obj:0)
$_42__1_z                                         -25 	(obj:0)
$and$benchmarks/c432.v:170$376_y                    7 	(obj:0)
$and$benchmarks/c432.v:170$376_z                  -15 	(obj:0)
$_40__1_y                                           4 	(obj:0)
$_40__1_z                                         -13 	(obj:0)
$and$benchmarks/c432.v:170$379_y                    8 	(obj:0)
$and$benchmarks/c432.v:170$379_z                  -18 	(obj:0)
$_44__1_y                                           1 	(obj:0)
$_44__1_z                                         -19 	(obj:0)
$_38__1_y                                           6 	(obj:0)
$_38__1_z                                         -25 	(obj:0)
x36                                                 2 	(obj:1)
x47                                                 2 	(obj:1)
x48                                                 1 	(obj:1)
